(set-logic QF_FPABV)
(declare-fun b306 () (_ FP 11 53))
(declare-fun b1175 () (_ FP 8 24))
(declare-fun b217 () (_ FP 11 53))
(declare-fun b390 () (_ FP 11 53))
(declare-fun b1086 () (_ FP 8 24))
(declare-fun b1031 () (_ FP 8 24))
(declare-fun b357 () (_ FP 11 53))
(declare-fun b1110 () (_ FP 8 24))
(declare-fun b1160 () (_ FP 8 24))
(declare-fun b1011 () (_ FP 8 24))
(declare-fun b1115 () (_ FP 8 24))
(declare-fun b685 () (_ FP 8 24))
(declare-fun b1056 () (_ FP 8 24))
(declare-fun b1145 () (_ FP 8 24))
(declare-fun b1076 () (_ FP 8 24))
(declare-fun b1021 () (_ FP 8 24))
(declare-fun b1066 () (_ FP 8 24))
(declare-fun b1016 () (_ FP 8 24))
(declare-fun b1046 () (_ FP 8 24))
(declare-fun b1155 () (_ FP 8 24))
(declare-fun b1026 () (_ FP 8 24))
(declare-fun b289 () (_ FP 11 53))
(declare-fun b1125 () (_ FP 8 24))
(declare-fun b1140 () (_ FP 8 24))
(declare-fun b1120 () (_ FP 8 24))
(declare-fun b198 () (_ FP 8 24))
(declare-fun b996 () (_ FP 8 24))
(declare-fun b1180 () (_ FP 8 24))
(declare-fun b207 () (_ FP 8 24))
(declare-fun b441 () (_ FP 11 53))
(declare-fun b1006 () (_ FP 8 24))
(declare-fun b1095 () (_ FP 8 24))
(declare-fun b200 () (_ FP 8 24))
(declare-fun b1190 () (_ FP 8 24))
(declare-fun b1100 () (_ FP 8 24))
(declare-fun b526 () (_ FP 11 53))
(declare-fun b994 () (_ FP 8 24))
(declare-fun b1130 () (_ FP 8 24))
(declare-fun b1051 () (_ FP 8 24))
(declare-fun b989 () (_ FP 8 24))
(declare-fun b1165 () (_ FP 8 24))
(declare-fun b1071 () (_ FP 8 24))
(declare-fun b340 () (_ FP 11 53))
(declare-fun b1081 () (_ FP 8 24))
(declare-fun b1061 () (_ FP 8 24))
(declare-fun b323 () (_ FP 11 53))
(declare-fun b1001 () (_ FP 8 24))
(declare-fun b475 () (_ FP 11 53))
(declare-fun b1150 () (_ FP 8 24))
(declare-fun b543 () (_ FP 11 53))
(declare-fun b424 () (_ FP 11 53))
(declare-fun b682 () (_ FP 8 24))
(declare-fun b1036 () (_ FP 8 24))
(declare-fun b1135 () (_ FP 8 24))
(declare-fun b255 () (_ FP 11 53))
(declare-fun b239 () (_ FP 11 53))
(declare-fun b407 () (_ FP 11 53))
(declare-fun b1170 () (_ FP 8 24))
(declare-fun b1041 () (_ FP 8 24))
(declare-fun b492 () (_ FP 11 53))
(declare-fun b272 () (_ FP 11 53))
(declare-fun b458 () (_ FP 11 53))
(declare-fun b1185 () (_ FP 8 24))
(declare-fun b509 () (_ FP 11 53))
(declare-fun b1105 () (_ FP 8 24))
(declare-fun b373 () (_ FP 11 53))
(declare-fun b230 () (_ FP 11 53))
(define-fun .3 () RoundingMode roundNearestTiesToEven)
(define-fun .9 () (_ FP 8 24) b198)
(define-fun .10 () (_ FP 8 24) (* .3 .9 .9))
(define-fun .11 () (_ FP 8 24) (- .10))
(define-fun .12 () (_ FP 8 24) (* .3 .9 .11))
(define-fun .13 () (_ FP 11 53) ((_ asFloat 11 53) .3 .12))
(define-fun .14 () (_ FP 11 53) b217)
(define-fun .15 () (_ FP 11 53) (/ .3 .13 .14))
(define-fun .16 () (_ FP 8 24) ((_ asFloat 8 24) .3 .15))
(define-fun .17 () (_ FP 8 24) b1190)
(define-fun .18 () Bool (= .16 .17))
(define-fun .19 () Bool (not .18))
(define-fun .20 () (_ FP 8 24) (* .3 .11 .16))
(define-fun .21 () (_ FP 11 53) ((_ asFloat 11 53) .3 .20))
(define-fun .22 () (_ FP 11 53) b239)
(define-fun .23 () (_ FP 11 53) (/ .3 .21 .22))
(define-fun .24 () (_ FP 8 24) ((_ asFloat 8 24) .3 .23))
(define-fun .25 () (_ FP 8 24) b1185)
(define-fun .26 () Bool (= .24 .25))
(define-fun .27 () Bool (not .26))
(define-fun .28 () (_ FP 8 24) (* .3 .11 .24))
(define-fun .29 () (_ FP 11 53) ((_ asFloat 11 53) .3 .28))
(define-fun .30 () (_ FP 11 53) b255)
(define-fun .31 () (_ FP 11 53) (/ .3 .29 .30))
(define-fun .32 () (_ FP 8 24) ((_ asFloat 8 24) .3 .31))
(define-fun .33 () (_ FP 8 24) b1180)
(define-fun .34 () Bool (= .32 .33))
(define-fun .35 () Bool (not .34))
(define-fun .36 () (_ FP 8 24) (* .3 .11 .32))
(define-fun .37 () (_ FP 11 53) ((_ asFloat 11 53) .3 .36))
(define-fun .38 () (_ FP 11 53) b272)
(define-fun .39 () (_ FP 11 53) (/ .3 .37 .38))
(define-fun .40 () (_ FP 8 24) ((_ asFloat 8 24) .3 .39))
(define-fun .41 () (_ FP 8 24) b1175)
(define-fun .42 () Bool (= .40 .41))
(define-fun .43 () Bool (not .42))
(define-fun .44 () (_ FP 8 24) (* .3 .11 .40))
(define-fun .45 () (_ FP 11 53) ((_ asFloat 11 53) .3 .44))
(define-fun .46 () (_ FP 11 53) b289)
(define-fun .47 () (_ FP 11 53) (/ .3 .45 .46))
(define-fun .48 () (_ FP 8 24) ((_ asFloat 8 24) .3 .47))
(define-fun .49 () (_ FP 8 24) b1170)
(define-fun .50 () Bool (= .48 .49))
(define-fun .51 () Bool (not .50))
(define-fun .52 () (_ FP 8 24) (* .3 .11 .48))
(define-fun .53 () (_ FP 11 53) ((_ asFloat 11 53) .3 .52))
(define-fun .54 () (_ FP 11 53) b306)
(define-fun .55 () (_ FP 11 53) (/ .3 .53 .54))
(define-fun .56 () (_ FP 8 24) ((_ asFloat 8 24) .3 .55))
(define-fun .57 () (_ FP 8 24) b1165)
(define-fun .58 () Bool (= .56 .57))
(define-fun .59 () Bool (not .58))
(define-fun .60 () (_ FP 8 24) (* .3 .11 .56))
(define-fun .61 () (_ FP 11 53) ((_ asFloat 11 53) .3 .60))
(define-fun .62 () (_ FP 11 53) b323)
(define-fun .63 () (_ FP 11 53) (/ .3 .61 .62))
(define-fun .64 () (_ FP 8 24) ((_ asFloat 8 24) .3 .63))
(define-fun .65 () (_ FP 8 24) b1160)
(define-fun .66 () Bool (= .64 .65))
(define-fun .67 () Bool (not .66))
(define-fun .68 () (_ FP 8 24) (* .3 .11 .64))
(define-fun .69 () (_ FP 11 53) ((_ asFloat 11 53) .3 .68))
(define-fun .70 () (_ FP 11 53) b340)
(define-fun .71 () (_ FP 11 53) (/ .3 .69 .70))
(define-fun .72 () (_ FP 8 24) ((_ asFloat 8 24) .3 .71))
(define-fun .73 () (_ FP 8 24) b1155)
(define-fun .74 () Bool (= .72 .73))
(define-fun .75 () Bool (not .74))
(define-fun .76 () (_ FP 8 24) (* .3 .11 .72))
(define-fun .77 () (_ FP 11 53) ((_ asFloat 11 53) .3 .76))
(define-fun .78 () (_ FP 11 53) b357)
(define-fun .79 () (_ FP 11 53) (/ .3 .77 .78))
(define-fun .80 () (_ FP 8 24) ((_ asFloat 8 24) .3 .79))
(define-fun .81 () (_ FP 8 24) b1150)
(define-fun .82 () Bool (= .80 .81))
(define-fun .83 () Bool (not .82))
(define-fun .84 () (_ FP 8 24) (* .3 .11 .80))
(define-fun .85 () (_ FP 11 53) ((_ asFloat 11 53) .3 .84))
(define-fun .86 () (_ FP 11 53) b373)
(define-fun .87 () (_ FP 11 53) (/ .3 .85 .86))
(define-fun .88 () (_ FP 8 24) ((_ asFloat 8 24) .3 .87))
(define-fun .89 () (_ FP 8 24) b1145)
(define-fun .90 () Bool (= .88 .89))
(define-fun .91 () Bool (not .90))
(define-fun .92 () (_ FP 8 24) (* .3 .11 .88))
(define-fun .93 () (_ FP 11 53) ((_ asFloat 11 53) .3 .92))
(define-fun .94 () (_ FP 11 53) b390)
(define-fun .95 () (_ FP 11 53) (/ .3 .93 .94))
(define-fun .96 () (_ FP 8 24) ((_ asFloat 8 24) .3 .95))
(define-fun .97 () (_ FP 8 24) b1140)
(define-fun .98 () Bool (= .96 .97))
(define-fun .99 () Bool (not .98))
(define-fun .100 () (_ FP 8 24) (* .3 .11 .96))
(define-fun .101 () (_ FP 11 53) ((_ asFloat 11 53) .3 .100))
(define-fun .102 () (_ FP 11 53) b407)
(define-fun .103 () (_ FP 11 53) (/ .3 .101 .102))
(define-fun .104 () (_ FP 8 24) ((_ asFloat 8 24) .3 .103))
(define-fun .105 () (_ FP 8 24) b1135)
(define-fun .106 () Bool (= .104 .105))
(define-fun .107 () Bool (not .106))
(define-fun .108 () (_ FP 8 24) (* .3 .11 .104))
(define-fun .109 () (_ FP 11 53) ((_ asFloat 11 53) .3 .108))
(define-fun .110 () (_ FP 11 53) b424)
(define-fun .111 () (_ FP 11 53) (/ .3 .109 .110))
(define-fun .112 () (_ FP 8 24) ((_ asFloat 8 24) .3 .111))
(define-fun .113 () (_ FP 8 24) b1130)
(define-fun .114 () Bool (= .112 .113))
(define-fun .115 () Bool (not .114))
(define-fun .116 () (_ FP 8 24) (* .3 .11 .112))
(define-fun .117 () (_ FP 11 53) ((_ asFloat 11 53) .3 .116))
(define-fun .118 () (_ FP 11 53) b441)
(define-fun .119 () (_ FP 11 53) (/ .3 .117 .118))
(define-fun .120 () (_ FP 8 24) ((_ asFloat 8 24) .3 .119))
(define-fun .121 () (_ FP 8 24) b1125)
(define-fun .122 () Bool (= .120 .121))
(define-fun .123 () Bool (not .122))
(define-fun .124 () (_ FP 8 24) (* .3 .11 .120))
(define-fun .125 () (_ FP 11 53) ((_ asFloat 11 53) .3 .124))
(define-fun .126 () (_ FP 11 53) b458)
(define-fun .127 () (_ FP 11 53) (/ .3 .125 .126))
(define-fun .128 () (_ FP 8 24) ((_ asFloat 8 24) .3 .127))
(define-fun .129 () (_ FP 8 24) b1120)
(define-fun .130 () Bool (= .128 .129))
(define-fun .131 () Bool (not .130))
(define-fun .132 () (_ FP 8 24) (* .3 .11 .128))
(define-fun .133 () (_ FP 11 53) ((_ asFloat 11 53) .3 .132))
(define-fun .134 () (_ FP 11 53) b475)
(define-fun .135 () (_ FP 11 53) (/ .3 .133 .134))
(define-fun .136 () (_ FP 8 24) ((_ asFloat 8 24) .3 .135))
(define-fun .137 () (_ FP 8 24) b1115)
(define-fun .138 () Bool (= .136 .137))
(define-fun .139 () Bool (not .138))
(define-fun .140 () (_ FP 8 24) (* .3 .11 .136))
(define-fun .141 () (_ FP 11 53) ((_ asFloat 11 53) .3 .140))
(define-fun .142 () (_ FP 11 53) b492)
(define-fun .143 () (_ FP 11 53) (/ .3 .141 .142))
(define-fun .144 () (_ FP 8 24) ((_ asFloat 8 24) .3 .143))
(define-fun .145 () (_ FP 8 24) b1110)
(define-fun .146 () Bool (= .144 .145))
(define-fun .147 () Bool (not .146))
(define-fun .148 () (_ FP 8 24) (* .3 .11 .144))
(define-fun .149 () (_ FP 11 53) ((_ asFloat 11 53) .3 .148))
(define-fun .150 () (_ FP 11 53) b509)
(define-fun .151 () (_ FP 11 53) (/ .3 .149 .150))
(define-fun .152 () (_ FP 8 24) ((_ asFloat 8 24) .3 .151))
(define-fun .153 () (_ FP 8 24) b1105)
(define-fun .154 () Bool (= .152 .153))
(define-fun .155 () Bool (not .154))
(define-fun .156 () (_ FP 8 24) (* .3 .11 .152))
(define-fun .157 () (_ FP 11 53) ((_ asFloat 11 53) .3 .156))
(define-fun .158 () (_ FP 11 53) b526)
(define-fun .159 () (_ FP 11 53) (/ .3 .157 .158))
(define-fun .160 () (_ FP 8 24) ((_ asFloat 8 24) .3 .159))
(define-fun .161 () (_ FP 8 24) b1100)
(define-fun .162 () Bool (= .160 .161))
(define-fun .163 () Bool (not .162))
(define-fun .164 () (_ FP 8 24) (* .3 .11 .160))
(define-fun .165 () (_ FP 11 53) ((_ asFloat 11 53) .3 .164))
(define-fun .166 () (_ FP 11 53) b543)
(define-fun .167 () (_ FP 11 53) (/ .3 .165 .166))
(define-fun .168 () (_ FP 8 24) ((_ asFloat 8 24) .3 .167))
(define-fun .169 () (_ FP 8 24) b1095)
(define-fun .170 () Bool (= .168 .169))
(define-fun .171 () Bool (not .170))
(define-fun .172 () (_ FP 8 24) b994)
(define-fun .173 () (_ FP 8 24) b1086)
(define-fun .174 () Bool (= .172 .173))
(define-fun .175 () Bool (not .174))
(define-fun .176 () (_ FP 8 24) b1081)
(define-fun .177 () Bool (= .173 .176))
(define-fun .178 () Bool (not .177))
(define-fun .179 () (_ FP 8 24) b1076)
(define-fun .180 () Bool (= .176 .179))
(define-fun .181 () Bool (not .180))
(define-fun .182 () (_ FP 8 24) b1071)
(define-fun .183 () Bool (= .179 .182))
(define-fun .184 () Bool (not .183))
(define-fun .185 () (_ FP 8 24) b1066)
(define-fun .186 () Bool (= .182 .185))
(define-fun .187 () Bool (not .186))
(define-fun .188 () (_ FP 8 24) b1061)
(define-fun .189 () Bool (= .185 .188))
(define-fun .190 () Bool (not .189))
(define-fun .191 () (_ FP 8 24) b1056)
(define-fun .192 () Bool (= .188 .191))
(define-fun .193 () Bool (not .192))
(define-fun .194 () (_ FP 8 24) b1051)
(define-fun .195 () Bool (= .191 .194))
(define-fun .196 () Bool (not .195))
(define-fun .197 () (_ FP 8 24) b1046)
(define-fun .198 () Bool (= .194 .197))
(define-fun .199 () Bool (not .198))
(define-fun .200 () (_ FP 8 24) b1041)
(define-fun .201 () Bool (= .197 .200))
(define-fun .202 () Bool (not .201))
(define-fun .203 () (_ FP 8 24) b1036)
(define-fun .204 () Bool (= .200 .203))
(define-fun .205 () Bool (not .204))
(define-fun .206 () (_ FP 8 24) b1031)
(define-fun .207 () Bool (= .203 .206))
(define-fun .208 () Bool (not .207))
(define-fun .209 () (_ FP 8 24) b1026)
(define-fun .210 () Bool (= .206 .209))
(define-fun .211 () Bool (not .210))
(define-fun .212 () (_ FP 8 24) b1021)
(define-fun .213 () Bool (= .209 .212))
(define-fun .214 () Bool (not .213))
(define-fun .215 () (_ FP 8 24) b1016)
(define-fun .216 () Bool (= .212 .215))
(define-fun .217 () Bool (not .216))
(define-fun .218 () (_ FP 8 24) b1011)
(define-fun .219 () Bool (= .215 .218))
(define-fun .220 () Bool (not .219))
(define-fun .221 () (_ FP 8 24) b1006)
(define-fun .222 () Bool (= .218 .221))
(define-fun .223 () Bool (not .222))
(define-fun .224 () (_ FP 8 24) b1001)
(define-fun .225 () Bool (= .221 .224))
(define-fun .226 () Bool (not .225))
(define-fun .227 () (_ FP 8 24) (+ .3 .9 .16))
(define-fun .228 () (_ FP 8 24) (+ .3 .24 .227))
(define-fun .229 () (_ FP 8 24) (+ .3 .32 .228))
(define-fun .230 () (_ FP 8 24) (+ .3 .40 .229))
(define-fun .231 () (_ FP 8 24) (+ .3 .48 .230))
(define-fun .232 () (_ FP 8 24) (+ .3 .56 .231))
(define-fun .233 () (_ FP 8 24) (+ .3 .64 .232))
(define-fun .234 () (_ FP 8 24) (+ .3 .72 .233))
(define-fun .235 () (_ FP 8 24) (+ .3 .80 .234))
(define-fun .236 () (_ FP 8 24) (+ .3 .88 .235))
(define-fun .237 () (_ FP 8 24) (+ .3 .96 .236))
(define-fun .238 () (_ FP 8 24) (+ .3 .104 .237))
(define-fun .239 () (_ FP 8 24) (+ .3 .112 .238))
(define-fun .240 () (_ FP 8 24) (+ .3 .120 .239))
(define-fun .241 () (_ FP 8 24) (+ .3 .128 .240))
(define-fun .242 () (_ FP 8 24) (+ .3 .136 .241))
(define-fun .243 () (_ FP 8 24) (+ .3 .144 .242))
(define-fun .244 () (_ FP 8 24) (+ .3 .152 .243))
(define-fun .245 () (_ FP 8 24) (+ .3 .160 .244))
(define-fun .246 () (_ FP 8 24) (+ .3 .168 .245))
(define-fun .247 () Bool (= .224 .246))
(define-fun .248 () Bool (not .247))
(define-fun .249 () (_ FP 8 24) b996)
(define-fun .250 () Bool (= .172 .249))
(define-fun .251 () Bool (not .250))
(define-fun .252 () (_ FP 8 24) b989)
(define-fun .253 () Bool (= .9 .252))
(define-fun .254 () Bool (not .253))
(define-fun .255 () (_ FP 8 24) b200)
(define-fun .256 () Bool (<= .255 .9))
(define-fun .257 () Bool (not .256))
(define-fun .258 () (_ FP 8 24) (- .9))
(define-fun .259 () Bool (= .252 .258))
(define-fun .260 () Bool (and .257 .259))
(define-fun .261 () Bool (and .254 .260))
(define-fun .262 () Bool (<= .255 .172))
(define-fun .263 () Bool (not .262))
(define-fun .264 () Bool (and .261 .263))
(define-fun .265 () (_ FP 8 24) (- .172))
(define-fun .266 () Bool (= .249 .265))
(define-fun .267 () Bool (and .264 .266))
(define-fun .268 () Bool (and .251 .267))
(define-fun .269 () (_ FP 11 53) ((_ asFloat 11 53) .3 .161))
(define-fun .270 () (_ FP 11 53) b230)
(define-fun .271 () Bool (<= .270 .269))
(define-fun .272 () Bool (not .271))
(define-fun .273 () Bool (and .268 .272))
(define-fun .274 () Bool (= .224 .245))
(define-fun .275 () Bool (and .273 .274))
(define-fun .276 () (_ FP 8 24) b207)
(define-fun .277 () Bool (<= .249 .276))
(define-fun .278 () Bool (not .277))
(define-fun .279 () Bool (and .275 .278))
(define-fun .280 () (_ FP 8 24) b685)
(define-fun .281 () Bool (<= .252 .280))
(define-fun .282 () Bool (and .279 .281))
(define-fun .283 () (_ FP 8 24) b682)
(define-fun .284 () Bool (<= .283 .9))
(define-fun .285 () Bool (and .282 .284))
(define-fun .286 () Bool (<= .9 .280))
(define-fun .287 () Bool (and .285 .286))
(define-fun .288 () Bool (and .248 .287))
(define-fun .289 () (_ FP 11 53) ((_ asFloat 11 53) .3 .153))
(define-fun .290 () Bool (<= .270 .289))
(define-fun .291 () Bool (not .290))
(define-fun .292 () Bool (and .288 .291))
(define-fun .293 () Bool (= .221 .244))
(define-fun .294 () Bool (and .292 .293))
(define-fun .295 () Bool (and .226 .294))
(define-fun .296 () (_ FP 11 53) ((_ asFloat 11 53) .3 .145))
(define-fun .297 () Bool (<= .270 .296))
(define-fun .298 () Bool (not .297))
(define-fun .299 () Bool (and .295 .298))
(define-fun .300 () Bool (= .218 .243))
(define-fun .301 () Bool (and .299 .300))
(define-fun .302 () Bool (and .223 .301))
(define-fun .303 () (_ FP 11 53) ((_ asFloat 11 53) .3 .137))
(define-fun .304 () Bool (<= .270 .303))
(define-fun .305 () Bool (not .304))
(define-fun .306 () Bool (and .302 .305))
(define-fun .307 () Bool (= .215 .242))
(define-fun .308 () Bool (and .306 .307))
(define-fun .309 () Bool (and .220 .308))
(define-fun .310 () (_ FP 11 53) ((_ asFloat 11 53) .3 .129))
(define-fun .311 () Bool (<= .270 .310))
(define-fun .312 () Bool (not .311))
(define-fun .313 () Bool (and .309 .312))
(define-fun .314 () Bool (= .212 .241))
(define-fun .315 () Bool (and .313 .314))
(define-fun .316 () Bool (and .217 .315))
(define-fun .317 () (_ FP 11 53) ((_ asFloat 11 53) .3 .121))
(define-fun .318 () Bool (<= .270 .317))
(define-fun .319 () Bool (not .318))
(define-fun .320 () Bool (and .316 .319))
(define-fun .321 () Bool (= .209 .240))
(define-fun .322 () Bool (and .320 .321))
(define-fun .323 () Bool (and .214 .322))
(define-fun .324 () (_ FP 11 53) ((_ asFloat 11 53) .3 .113))
(define-fun .325 () Bool (<= .270 .324))
(define-fun .326 () Bool (not .325))
(define-fun .327 () Bool (and .323 .326))
(define-fun .328 () Bool (= .206 .239))
(define-fun .329 () Bool (and .327 .328))
(define-fun .330 () Bool (and .211 .329))
(define-fun .331 () (_ FP 11 53) ((_ asFloat 11 53) .3 .105))
(define-fun .332 () Bool (<= .270 .331))
(define-fun .333 () Bool (not .332))
(define-fun .334 () Bool (and .330 .333))
(define-fun .335 () Bool (= .203 .238))
(define-fun .336 () Bool (and .334 .335))
(define-fun .337 () Bool (and .208 .336))
(define-fun .338 () (_ FP 11 53) ((_ asFloat 11 53) .3 .97))
(define-fun .339 () Bool (<= .270 .338))
(define-fun .340 () Bool (not .339))
(define-fun .341 () Bool (and .337 .340))
(define-fun .342 () Bool (= .200 .237))
(define-fun .343 () Bool (and .341 .342))
(define-fun .344 () Bool (and .205 .343))
(define-fun .345 () (_ FP 11 53) ((_ asFloat 11 53) .3 .89))
(define-fun .346 () Bool (<= .270 .345))
(define-fun .347 () Bool (not .346))
(define-fun .348 () Bool (and .344 .347))
(define-fun .349 () Bool (= .197 .236))
(define-fun .350 () Bool (and .348 .349))
(define-fun .351 () Bool (and .202 .350))
(define-fun .352 () (_ FP 11 53) ((_ asFloat 11 53) .3 .81))
(define-fun .353 () Bool (<= .270 .352))
(define-fun .354 () Bool (not .353))
(define-fun .355 () Bool (and .351 .354))
(define-fun .356 () Bool (= .194 .235))
(define-fun .357 () Bool (and .355 .356))
(define-fun .358 () Bool (and .199 .357))
(define-fun .359 () (_ FP 11 53) ((_ asFloat 11 53) .3 .73))
(define-fun .360 () Bool (<= .270 .359))
(define-fun .361 () Bool (not .360))
(define-fun .362 () Bool (and .358 .361))
(define-fun .363 () Bool (= .191 .234))
(define-fun .364 () Bool (and .362 .363))
(define-fun .365 () Bool (and .196 .364))
(define-fun .366 () (_ FP 11 53) ((_ asFloat 11 53) .3 .65))
(define-fun .367 () Bool (<= .270 .366))
(define-fun .368 () Bool (not .367))
(define-fun .369 () Bool (and .365 .368))
(define-fun .370 () Bool (= .188 .233))
(define-fun .371 () Bool (and .369 .370))
(define-fun .372 () Bool (and .193 .371))
(define-fun .373 () (_ FP 11 53) ((_ asFloat 11 53) .3 .57))
(define-fun .374 () Bool (<= .270 .373))
(define-fun .375 () Bool (not .374))
(define-fun .376 () Bool (and .372 .375))
(define-fun .377 () Bool (= .185 .232))
(define-fun .378 () Bool (and .376 .377))
(define-fun .379 () Bool (and .190 .378))
(define-fun .380 () (_ FP 11 53) ((_ asFloat 11 53) .3 .49))
(define-fun .381 () Bool (<= .270 .380))
(define-fun .382 () Bool (not .381))
(define-fun .383 () Bool (and .379 .382))
(define-fun .384 () Bool (= .182 .231))
(define-fun .385 () Bool (and .383 .384))
(define-fun .386 () Bool (and .187 .385))
(define-fun .387 () (_ FP 11 53) ((_ asFloat 11 53) .3 .41))
(define-fun .388 () Bool (<= .270 .387))
(define-fun .389 () Bool (not .388))
(define-fun .390 () Bool (and .386 .389))
(define-fun .391 () Bool (= .179 .230))
(define-fun .392 () Bool (and .390 .391))
(define-fun .393 () Bool (and .184 .392))
(define-fun .394 () (_ FP 11 53) ((_ asFloat 11 53) .3 .33))
(define-fun .395 () Bool (<= .270 .394))
(define-fun .396 () Bool (not .395))
(define-fun .397 () Bool (and .393 .396))
(define-fun .398 () Bool (= .176 .229))
(define-fun .399 () Bool (and .397 .398))
(define-fun .400 () Bool (and .181 .399))
(define-fun .401 () (_ FP 11 53) ((_ asFloat 11 53) .3 .25))
(define-fun .402 () Bool (<= .270 .401))
(define-fun .403 () Bool (not .402))
(define-fun .404 () Bool (and .400 .403))
(define-fun .405 () Bool (= .173 .228))
(define-fun .406 () Bool (and .404 .405))
(define-fun .407 () Bool (and .178 .406))
(define-fun .408 () (_ FP 11 53) ((_ asFloat 11 53) .3 .17))
(define-fun .409 () Bool (<= .270 .408))
(define-fun .410 () Bool (not .409))
(define-fun .411 () Bool (and .407 .410))
(define-fun .412 () Bool (= .172 .227))
(define-fun .413 () Bool (and .411 .412))
(define-fun .414 () Bool (and .175 .413))
(define-fun .415 () Bool (<= .255 .168))
(define-fun .416 () Bool (not .415))
(define-fun .417 () Bool (and .414 .416))
(define-fun .418 () (_ FP 8 24) (- .168))
(define-fun .419 () Bool (= .169 .418))
(define-fun .420 () Bool (and .417 .419))
(define-fun .421 () Bool (and .171 .420))
(define-fun .422 () Bool (<= .255 .160))
(define-fun .423 () Bool (not .422))
(define-fun .424 () Bool (and .421 .423))
(define-fun .425 () (_ FP 8 24) (- .160))
(define-fun .426 () Bool (= .161 .425))
(define-fun .427 () Bool (and .424 .426))
(define-fun .428 () Bool (and .163 .427))
(define-fun .429 () Bool (<= .255 .152))
(define-fun .430 () Bool (not .429))
(define-fun .431 () Bool (and .428 .430))
(define-fun .432 () (_ FP 8 24) (- .152))
(define-fun .433 () Bool (= .153 .432))
(define-fun .434 () Bool (and .431 .433))
(define-fun .435 () Bool (and .155 .434))
(define-fun .436 () Bool (<= .255 .144))
(define-fun .437 () Bool (not .436))
(define-fun .438 () Bool (and .435 .437))
(define-fun .439 () (_ FP 8 24) (- .144))
(define-fun .440 () Bool (= .145 .439))
(define-fun .441 () Bool (and .438 .440))
(define-fun .442 () Bool (and .147 .441))
(define-fun .443 () Bool (<= .255 .136))
(define-fun .444 () Bool (not .443))
(define-fun .445 () Bool (and .442 .444))
(define-fun .446 () (_ FP 8 24) (- .136))
(define-fun .447 () Bool (= .137 .446))
(define-fun .448 () Bool (and .445 .447))
(define-fun .449 () Bool (and .139 .448))
(define-fun .450 () Bool (<= .255 .128))
(define-fun .451 () Bool (not .450))
(define-fun .452 () Bool (and .449 .451))
(define-fun .453 () (_ FP 8 24) (- .128))
(define-fun .454 () Bool (= .129 .453))
(define-fun .455 () Bool (and .452 .454))
(define-fun .456 () Bool (and .131 .455))
(define-fun .457 () Bool (<= .255 .120))
(define-fun .458 () Bool (not .457))
(define-fun .459 () Bool (and .456 .458))
(define-fun .460 () (_ FP 8 24) (- .120))
(define-fun .461 () Bool (= .121 .460))
(define-fun .462 () Bool (and .459 .461))
(define-fun .463 () Bool (and .123 .462))
(define-fun .464 () Bool (<= .255 .112))
(define-fun .465 () Bool (not .464))
(define-fun .466 () Bool (and .463 .465))
(define-fun .467 () (_ FP 8 24) (- .112))
(define-fun .468 () Bool (= .113 .467))
(define-fun .469 () Bool (and .466 .468))
(define-fun .470 () Bool (and .115 .469))
(define-fun .471 () Bool (<= .255 .104))
(define-fun .472 () Bool (not .471))
(define-fun .473 () Bool (and .470 .472))
(define-fun .474 () (_ FP 8 24) (- .104))
(define-fun .475 () Bool (= .105 .474))
(define-fun .476 () Bool (and .473 .475))
(define-fun .477 () Bool (and .107 .476))
(define-fun .478 () Bool (<= .255 .96))
(define-fun .479 () Bool (not .478))
(define-fun .480 () Bool (and .477 .479))
(define-fun .481 () (_ FP 8 24) (- .96))
(define-fun .482 () Bool (= .97 .481))
(define-fun .483 () Bool (and .480 .482))
(define-fun .484 () Bool (and .99 .483))
(define-fun .485 () Bool (<= .255 .88))
(define-fun .486 () Bool (not .485))
(define-fun .487 () Bool (and .484 .486))
(define-fun .488 () (_ FP 8 24) (- .88))
(define-fun .489 () Bool (= .89 .488))
(define-fun .490 () Bool (and .487 .489))
(define-fun .491 () Bool (and .91 .490))
(define-fun .492 () Bool (<= .255 .80))
(define-fun .493 () Bool (not .492))
(define-fun .494 () Bool (and .491 .493))
(define-fun .495 () (_ FP 8 24) (- .80))
(define-fun .496 () Bool (= .81 .495))
(define-fun .497 () Bool (and .494 .496))
(define-fun .498 () Bool (and .83 .497))
(define-fun .499 () Bool (<= .255 .72))
(define-fun .500 () Bool (not .499))
(define-fun .501 () Bool (and .498 .500))
(define-fun .502 () (_ FP 8 24) (- .72))
(define-fun .503 () Bool (= .73 .502))
(define-fun .504 () Bool (and .501 .503))
(define-fun .505 () Bool (and .75 .504))
(define-fun .506 () Bool (<= .255 .64))
(define-fun .507 () Bool (not .506))
(define-fun .508 () Bool (and .505 .507))
(define-fun .509 () (_ FP 8 24) (- .64))
(define-fun .510 () Bool (= .65 .509))
(define-fun .511 () Bool (and .508 .510))
(define-fun .512 () Bool (and .67 .511))
(define-fun .513 () Bool (<= .255 .56))
(define-fun .514 () Bool (not .513))
(define-fun .515 () Bool (and .512 .514))
(define-fun .516 () (_ FP 8 24) (- .56))
(define-fun .517 () Bool (= .57 .516))
(define-fun .518 () Bool (and .515 .517))
(define-fun .519 () Bool (and .59 .518))
(define-fun .520 () Bool (<= .255 .48))
(define-fun .521 () Bool (not .520))
(define-fun .522 () Bool (and .519 .521))
(define-fun .523 () (_ FP 8 24) (- .48))
(define-fun .524 () Bool (= .49 .523))
(define-fun .525 () Bool (and .522 .524))
(define-fun .526 () Bool (and .51 .525))
(define-fun .527 () Bool (<= .255 .40))
(define-fun .528 () Bool (not .527))
(define-fun .529 () Bool (and .526 .528))
(define-fun .530 () (_ FP 8 24) (- .40))
(define-fun .531 () Bool (= .41 .530))
(define-fun .532 () Bool (and .529 .531))
(define-fun .533 () Bool (and .43 .532))
(define-fun .534 () Bool (<= .255 .32))
(define-fun .535 () Bool (not .534))
(define-fun .536 () Bool (and .533 .535))
(define-fun .537 () (_ FP 8 24) (- .32))
(define-fun .538 () Bool (= .33 .537))
(define-fun .539 () Bool (and .536 .538))
(define-fun .540 () Bool (and .35 .539))
(define-fun .541 () Bool (<= .255 .24))
(define-fun .542 () Bool (not .541))
(define-fun .543 () Bool (and .540 .542))
(define-fun .544 () (_ FP 8 24) (- .24))
(define-fun .545 () Bool (= .25 .544))
(define-fun .546 () Bool (and .543 .545))
(define-fun .547 () Bool (and .27 .546))
(define-fun .548 () Bool (<= .255 .16))
(define-fun .549 () Bool (not .548))
(define-fun .550 () Bool (and .547 .549))
(define-fun .551 () (_ FP 8 24) (- .16))
(define-fun .552 () Bool (= .17 .551))
(define-fun .553 () Bool (and .550 .552))
(define-fun .554 () (_ FP 11 53) ((_ asFloat 11 53) .3 .169))
(define-fun .555 () Bool (<= .270 .554))
(define-fun .556 () Bool (not .555))
(define-fun .557 () Bool (and .553 .556))
(define-fun .558 () Bool (and .19 .557))
(assert .558)
(check-sat)
